
******************************************************************************
This program contains Ipopt, a library for large-scale nonlinear optimization.
 Ipopt is released as open source code under the Eclipse Public License (EPL).
         For more information visit http://projects.coin-or.org/Ipopt
******************************************************************************

This is Ipopt version 3.12.6, running with linear solver ma57.

Number of nonzeros in equality constraint Jacobian...:        0
Number of nonzeros in inequality constraint Jacobian.:     4000
Number of nonzeros in Lagrangian Hessian.............:     2397

Total number of variables............................:      800
                     variables with only lower bounds:        0
                variables with lower and upper bounds:      800
                     variables with only upper bounds:        0
Total number of equality constraints.................:        0
Total number of inequality constraints...............:     1603
        inequality constraints with only lower bounds:        0
   inequality constraints with lower and upper bounds:      801
        inequality constraints with only upper bounds:      802

iter    objective    inf_pr   inf_du lg(mu)  ||d||  lg(rg) alpha_du alpha_pr  ls
   0 -4.7123890e+00 7.50e-01 2.49e-01  -1.0 0.00e+00    -  0.00e+00 0.00e+00   0
   1 -4.7125205e+00 7.17e-01 2.03e+01  -1.0 1.21e+00    -  4.98e-01 4.41e-02h  1
   2 -4.7127016e+00 6.99e-01 2.09e+02  -1.0 9.98e-01    -  3.63e-01 3.59e-02h  1
   3 -4.7129472e+00 6.97e-01 1.47e+03  -1.0 1.27e+00    -  3.31e-02 3.65e-03h  1
   4 -4.7129345e+00 6.96e-01 1.79e+05  -1.0 1.02e+00    -  7.39e-02 6.14e-04h  1
   5 -4.7129324e+00 6.96e-01 2.62e+09  -1.0 1.00e+00    -  9.97e-01 6.79e-05h  1
   6r-4.7129324e+00 6.96e-01 1.00e+03  -0.2 0.00e+00    -  0.00e+00 3.47e-07R  2
   7r-4.7207472e+00 5.73e-01 1.62e+03  -0.2 1.37e+01    -  3.09e-01 1.65e-02f  1
   8 -4.7207449e+00 5.73e-01 8.32e+03  -1.0 9.16e-01    -  5.74e-01 1.70e-04h  1
   9 -4.7207513e+00 5.73e-01 3.11e+06  -1.0 1.06e+00    -  1.09e-01 2.87e-04h  1
iter    objective    inf_pr   inf_du lg(mu)  ||d||  lg(rg) alpha_du alpha_pr  ls
  10r-4.7207513e+00 5.73e-01 1.00e+03  -0.2 0.00e+00    -  0.00e+00 2.54e-07R  5
  11r-4.7324244e+00 3.53e-01 1.20e+03  -0.2 1.65e+01    -  9.99e-02 2.53e-02f  1
  12 -4.7324287e+00 3.52e-01 1.78e+03  -1.7 7.02e-01    -  7.64e-01 1.04e-03h  1
  13 -4.7324385e+00 3.52e-01 9.21e+05  -1.7 7.20e-01    -  6.50e-01 1.18e-03h  1
  14 -4.7324386e+00 3.52e-01 2.57e+10  -1.7 7.00e-01    -  1.00e+00 3.55e-05h  1
  15r-4.7324386e+00 3.52e-01 1.00e+03  -0.5 0.00e+00    -  0.00e+00 2.59e-07R  4
  16r-4.7419478e+00 2.52e-01 1.01e+03  -0.5 3.04e+01    -  1.59e-02 7.84e-03f  1
  17 -4.7419491e+00 2.52e-01 8.01e+03  -1.7 4.98e-01    -  8.16e-01 3.85e-04h  1
  18 -4.7419466e+00 2.52e-01 8.23e+06  -1.7 5.01e-01    -  9.38e-01 8.92e-04h  1
  19 -4.7419465e+00 2.52e-01 5.97e+11  -1.7 4.97e-01    -  1.00e+00 1.37e-05h  1
iter    objective    inf_pr   inf_du lg(mu)  ||d||  lg(rg) alpha_du alpha_pr  ls
  20 -4.7419357e+00 2.52e-01 8.63e+14  -1.7 4.88e-01    -  1.00e+00 6.85e-04h  1
  21r-4.7419357e+00 2.52e-01 1.00e+03  -0.6 0.00e+00    -  0.00e+00 7.17e-10R  2
  22r-4.7610005e+00 8.02e-02 9.88e+02  -0.6 2.37e+01    -  2.16e-02 1.76e-02f  1
  23 -4.7610052e+00 7.97e-02 4.27e+03  -1.7 1.12e-01    -  9.09e-01 4.88e-03h  1
  24 -4.7554748e+00 6.46e-02 1.10e+05  -1.7 1.10e-01    -  7.14e-03 1.93e-01h  1
  25 -4.7423981e+00 3.52e-02 6.00e+04  -1.7 7.13e-02    -  3.78e-02 4.50e-01h  1
  26 -4.7303350e+00 9.49e-03 1.64e+04  -1.7 4.27e-02    -  7.90e-01 7.27e-01h  1
  27 -4.7288025e+00 6.54e-03 1.12e+04  -1.7 1.62e-02    -  7.09e-01 3.02e-01h  1
  28 -4.7292553e+00 2.92e-03 5.22e+03  -1.7 1.19e-02    -  2.14e-01 5.34e-01h  1
  29 -4.7298231e+00 2.76e-03 4.58e+03  -1.7 6.47e-03    -  2.32e-01 1.23e-01h  1
iter    objective    inf_pr   inf_du lg(mu)  ||d||  lg(rg) alpha_du alpha_pr  ls
  30 -4.7299681e+00 2.34e-03 3.90e+03  -1.7 7.56e-03    -  2.65e-01 1.49e-01h  1
  31 -4.7295243e+00 1.86e-03 3.11e+03  -1.7 1.26e-02    -  2.68e-01 2.02e-01h  1
  32 -4.7276988e+00 1.45e-03 2.42e+03  -1.7 2.05e-02    -  3.09e-01 2.24e-01h  1
  33 -4.7236956e+00 1.09e-03 1.82e+03  -1.7 3.06e-02    -  3.54e-01 2.48e-01h  1
  34 -4.7164465e+00 7.91e-04 1.32e+03  -1.7 4.34e-02    -  4.05e-01 2.73e-01h  1
  35 -4.7043597e+00 5.56e-04 1.00e+03  -1.7 5.97e-02    -  4.63e-01 2.98e-01h  1
  36 -4.6847583e+00 3.76e-04 1.75e+03  -1.7 8.03e-02    -  5.33e-01 3.24e-01h  1
  37 -4.6525857e+00 2.43e-04 3.18e+03  -1.7 1.05e-01    -  6.21e-01 3.53e-01h  1
  38 -4.5987376e+00 1.50e-04 6.20e+03  -1.7 1.31e-01    -  7.46e-01 3.84e-01h  1
  39 -4.5143943e+00 8.73e-05 1.26e+04  -1.7 1.52e-01    -  9.18e-01 4.18e-01h  1
iter    objective    inf_pr   inf_du lg(mu)  ||d||  lg(rg) alpha_du alpha_pr  ls
  40 -4.4017977e+00 4.65e-05 2.10e+04  -1.7 1.60e-01    -  1.00e+00 4.67e-01h  1
  41 -4.2828927e+00 2.11e-05 2.61e+04  -1.7 1.43e-01    -  1.00e+00 5.45e-01h  1
  42 -4.2814127e+00 2.09e-05 7.08e+04  -1.7 8.89e-02    -  1.00e+00 1.13e-02f  7
  43 -4.1550521e+00 0.00e+00 3.04e+00  -1.7 8.52e-02    -  1.00e+00 1.00e+00h  1
  44 -4.1570780e+00 0.00e+00 6.01e-03  -2.5 2.31e-03    -  1.00e+00 1.00e+00f  1
  45 -4.1600197e+00 0.00e+00 2.20e+03  -5.7 2.25e-03    -  9.06e-01 1.00e+00f  1
  46 -4.2103221e+00 0.00e+00 1.29e+03  -5.7 3.94e-02    -  2.93e-01 1.00e+00f  1
  47 -4.2544081e+00 0.00e+00 4.00e+02  -5.7 3.86e-02    -  6.08e-01 1.00e+00f  1
  48 -4.2692526e+00 0.00e+00 1.75e+02  -5.7 3.29e-02    -  4.48e-01 7.45e-01f  1
  49 -4.2738123e+00 0.00e+00 6.16e+01  -5.7 2.74e-02    -  6.66e-01 6.25e-01f  1
iter    objective    inf_pr   inf_du lg(mu)  ||d||  lg(rg) alpha_du alpha_pr  ls
  50 -4.2751445e+00 0.00e+00 1.68e+01  -5.7 6.81e-03    -  8.58e-01 6.96e-01f  1
  51 -4.2752459e+00 0.00e+00 1.36e+01  -5.7 8.91e-03    -  5.43e-01 2.27e-01f  1
  52 -4.2755962e+00 0.00e+00 6.67e-05  -5.7 1.14e-03    -  1.00e+00 1.00e+00f  1
  53 -4.2755901e+00 0.00e+00 2.11e-07  -5.7 5.56e-04    -  1.00e+00 1.00e+00h  1
  54 -4.2762189e+00 0.00e+00 9.64e-01  -8.6 3.74e-03    -  5.06e-01 4.15e-01f  1
  55 -4.2767704e+00 0.00e+00 1.49e+00  -8.6 3.50e-03    -  2.94e-01 6.32e-01f  1
  56 -4.2768783e+00 0.00e+00 1.44e+00  -8.6 9.59e-04    -  1.93e-01 3.38e-01h  1
  57 -4.2769612e+00 0.00e+00 5.47e-01  -8.6 6.44e-04    -  4.87e-01 3.93e-01f  1
  58 -4.2770261e+00 0.00e+00 2.40e-01  -8.6 1.08e-03    -  5.77e-01 5.02e-01f  1
  59 -4.2770721e+00 0.00e+00 8.99e-02  -8.6 5.62e-04    -  5.94e-01 7.16e-01f  1
iter    objective    inf_pr   inf_du lg(mu)  ||d||  lg(rg) alpha_du alpha_pr  ls
  60 -4.2770762e+00 0.00e+00 1.79e+00  -8.6 1.08e-04    -  8.19e-01 2.23e-01f  1
  61 -4.2770883e+00 0.00e+00 9.39e-01  -8.6 7.61e-05    -  3.58e-01 8.66e-01f  1
  62 -4.2770902e+00 0.00e+00 1.86e-03  -8.6 5.24e-06    -  9.79e-01 1.00e+00f  1
  63 -4.2770902e+00 0.00e+00 6.31e-10  -8.6 2.90e-06    -  1.00e+00 1.00e+00h  1

Number of Iterations....: 63

                                   (scaled)                 (unscaled)
Objective...............:  -4.2770902042304551e+00   -4.2770902042304551e+00
Dual infeasibility......:   6.3067186802795439e-10    6.3067186802795439e-10
Constraint violation....:   0.0000000000000000e+00    0.0000000000000000e+00
Complementarity.........:   3.0450116912448980e-09    3.0450116912448980e-09
Overall NLP error.......:   3.0450116912448980e-09    3.0450116912448980e-09


Number of objective function evaluations             = 83
Number of objective gradient evaluations             = 64
Number of equality constraint evaluations            = 0
Number of inequality constraint evaluations          = 83
Number of equality constraint Jacobian evaluations   = 0
Number of inequality constraint Jacobian evaluations = 68
Number of Lagrangian Hessian evaluations             = 63
Total CPU secs in IPOPT (w/o function evaluations)   =      0.180
Total CPU secs in NLP function evaluations           =      0.040

EXIT: Optimal Solution Found.

************************ CUTEst statistics ************************


 Package used            :  IPOPT
 Problem                 :  CAMSHAPE  
 # variables             =             800
 # constraints           =            1603
 # objective functions   =        0.1480000E+03
 # objective gradients   =        0.6500000E+02
 # objective Hessians    =        0.6000000E+02
 # Hessian-vector prdct  =        0.0000000E+00
 # constraints functions =        0.1530000E+03
 # constraints gradients =        0.7000000E+02
 # constraints Hessians  =        0.6000000E+02
 Exit code               =               0
 Final f                 =  -0.4277090E+01
 Set up time             =            0.03 seconds
 Solve time              =            0.41 seconds


******************************************************************

System Time =       0.1780000031 s.
